(set-logic QF_BV)
(declare-fun _substvar_1557_ () (_ BitVec 16))
(assert (let ((?v_1 ((_ zero_extend 12) (_ bv1 4)))) (let ((?v_0 (bvlshr _substvar_1557_ ?v_1))) (let ((?v_30 (bvsub _substvar_1557_ ?v_0))) (let ((?v_2 (bvlshr ?v_0 ?v_1))) (let ((?v_31 (bvsub ?v_30 ?v_2))) (let ((?v_3 (bvlshr ?v_2 ?v_1))) (let ((?v_32 (bvsub ?v_31 ?v_3))) (let ((?v_4 (bvlshr ?v_3 ?v_1))) (let ((?v_33 (bvsub ?v_32 ?v_4))) (let ((?v_5 (bvlshr ?v_4 ?v_1))) (let ((?v_34 (bvsub ?v_33 ?v_5))) (let ((?v_6 (bvlshr ?v_5 ?v_1))) (let ((?v_35 (bvsub ?v_34 ?v_6))) (let ((?v_7 (bvlshr ?v_6 ?v_1))) (let ((?v_36 (bvsub ?v_35 ?v_7))) (let ((?v_8 (bvlshr ?v_7 ?v_1))) (let ((?v_37 (bvsub ?v_36 ?v_8))) (let ((?v_9 (bvlshr ?v_8 ?v_1))) (let ((?v_38 (bvsub ?v_37 ?v_9))) (let ((?v_10 (bvlshr ?v_9 ?v_1))) (let ((?v_39 (bvsub ?v_38 ?v_10))) (let ((?v_11 (bvlshr ?v_10 ?v_1))) (let ((?v_40 (bvsub ?v_39 ?v_11))) (let ((?v_12 (bvlshr ?v_11 ?v_1))) (let ((?v_41 (bvsub ?v_40 ?v_12))) (let ((?v_13 (bvlshr ?v_12 ?v_1))) (let ((?v_42 (bvsub ?v_41 ?v_13))) (let ((?v_14 (bvlshr ?v_13 ?v_1))) (let ((?v_44 (bvsub ?v_42 ?v_14))) (let ((?v_43 (bvlshr ?v_14 ?v_1))) (let ((?v_46 (bvsub ?v_44 ?v_43)) (?v_47 (ite (= (_ bv1 1) (ite (not (= (bvand _substvar_1557_ (_ bv1 16)) (_ bv0 16))) (_ bv1 1) (_ bv0 1))) (bvadd (_ bv0 16) (_ bv1 16)) (_ bv0 16)))) (let ((?v_48 (ite (= (_ bv1 1) (ite (not (= (bvand _substvar_1557_ (bvshl (_ bv1 16) ?v_1)) (_ bv0 16))) (_ bv1 1) (_ bv0 1))) (bvadd ?v_47 (_ bv1 16)) ?v_47))) (let ((?v_49 (ite (= (_ bv1 1) (ite (not (= (bvand _substvar_1557_ (bvshl (_ bv1 16) ((_ zero_extend 12) (_ bv2 4)))) (_ bv0 16))) (_ bv1 1) (_ bv0 1))) (bvadd ?v_48 (_ bv1 16)) ?v_48))) (let ((?v_50 (ite (= (_ bv1 1) (ite (not (= (bvand _substvar_1557_ (bvshl (_ bv1 16) ((_ zero_extend 12) (_ bv3 4)))) (_ bv0 16))) (_ bv1 1) (_ bv0 1))) (bvadd ?v_49 (_ bv1 16)) ?v_49))) (let ((?v_51 (ite (= (_ bv1 1) (ite (not (= (bvand _substvar_1557_ (bvshl (_ bv1 16) ((_ zero_extend 12) (_ bv4 4)))) (_ bv0 16))) (_ bv1 1) (_ bv0 1))) (bvadd ?v_50 (_ bv1 16)) ?v_50))) (let ((?v_52 (ite (= (_ bv1 1) (ite (not (= (bvand _substvar_1557_ (bvshl (_ bv1 16) ((_ zero_extend 12) (_ bv5 4)))) (_ bv0 16))) (_ bv1 1) (_ bv0 1))) (bvadd ?v_51 (_ bv1 16)) ?v_51))) (let ((?v_53 (ite (= (_ bv1 1) (ite (not (= (bvand _substvar_1557_ (bvshl (_ bv1 16) ((_ zero_extend 12) (_ bv6 4)))) (_ bv0 16))) (_ bv1 1) (_ bv0 1))) (bvadd ?v_52 (_ bv1 16)) ?v_52))) (let ((?v_54 (ite (= (_ bv1 1) (ite (not (= (bvand _substvar_1557_ (bvshl (_ bv1 16) ((_ zero_extend 12) (_ bv7 4)))) (_ bv0 16))) (_ bv1 1) (_ bv0 1))) (bvadd ?v_53 (_ bv1 16)) ?v_53))) (let ((?v_55 (ite (= (_ bv1 1) (ite (not (= (bvand _substvar_1557_ (bvshl (_ bv1 16) ((_ zero_extend 12) (_ bv8 4)))) (_ bv0 16))) (_ bv1 1) (_ bv0 1))) (bvadd ?v_54 (_ bv1 16)) ?v_54))) (let ((?v_56 (ite (= (_ bv1 1) (ite (not (= (bvand _substvar_1557_ (bvshl (_ bv1 16) ((_ zero_extend 12) (_ bv9 4)))) (_ bv0 16))) (_ bv1 1) (_ bv0 1))) (bvadd ?v_55 (_ bv1 16)) ?v_55))) (let ((?v_57 (ite (= (_ bv1 1) (ite (not (= (bvand _substvar_1557_ (bvshl (_ bv1 16) ((_ zero_extend 12) (_ bv10 4)))) (_ bv0 16))) (_ bv1 1) (_ bv0 1))) (bvadd ?v_56 (_ bv1 16)) ?v_56))) (let ((?v_58 (ite (= (_ bv1 1) (ite (not (= (bvand _substvar_1557_ (bvshl (_ bv1 16) ((_ zero_extend 12) (_ bv11 4)))) (_ bv0 16))) (_ bv1 1) (_ bv0 1))) (bvadd ?v_57 (_ bv1 16)) ?v_57))) (let ((?v_59 (ite (= (_ bv1 1) (ite (not (= (bvand _substvar_1557_ (bvshl (_ bv1 16) ((_ zero_extend 12) (_ bv12 4)))) (_ bv0 16))) (_ bv1 1) (_ bv0 1))) (bvadd ?v_58 (_ bv1 16)) ?v_58))) (let ((?v_60 (ite (= (_ bv1 1) (ite (not (= (bvand _substvar_1557_ (bvshl (_ bv1 16) ((_ zero_extend 12) (_ bv13 4)))) (_ bv0 16))) (_ bv1 1) (_ bv0 1))) (bvadd ?v_59 (_ bv1 16)) ?v_59))) (let ((?v_61 (ite (= (_ bv1 1) (ite (not (= (bvand _substvar_1557_ (bvshl (_ bv1 16) ((_ zero_extend 12) (_ bv14 4)))) (_ bv0 16))) (_ bv1 1) (_ bv0 1))) (bvadd ?v_60 (_ bv1 16)) ?v_60))) (not (= (bvnot (ite (= ?v_46 (ite (= (_ bv1 1) (ite (not (= (bvand _substvar_1557_ (bvshl (_ bv1 16) ((_ zero_extend 12) (_ bv15 4)))) (_ bv0 16))) (_ bv1 1) (_ bv0 1))) (bvadd ?v_61 (_ bv1 16)) ?v_61)) (_ bv1 1) (_ bv0 1))) (_ bv0 1)))))))))))))))))))))))))))))))))))))))))))))))))
(check-sat)
(exit)
